c Result of efficient AIG-to-CNF conversion using package CNF
p cnf 325 1082
2 -42 241 0
2 3 -192 241 0
-2 -241 0
-2 -3 42 0
-2 42 192 0
3 320 4 -27 0
3 -320 4 -15 0
-3 -4 0
-3 320 27 0
-3 -320 15 0
-4 5 11 13 14 0
4 -14 0
4 -5 0
4 -13 0
4 -11 0
-5 317 318 6 8 0
5 -317 0
5 -8 0
5 -6 0
5 -318 0
-6 309 315 316 7 0
6 -7 0
6 -316 0
6 -309 0
6 -315 0
-7 313 314 319 0
7 -313 0
7 -319 0
7 -314 0
-8 305 306 9 10 0
8 -305 0
8 -10 0
8 -9 0
8 -306 0
-9 310 311 312 0
9 -310 0
9 -312 0
9 -311 0
-10 301 302 307 308 0
10 -308 0
10 -307 0
10 -301 0
10 -302 0
-11 299 303 304 12 0
11 -12 0
11 -304 0
11 -299 0
11 -303 0
-12 297 298 0
12 -297 0
12 -298 0
-13 293 300 0
13 -293 0
13 -300 0
-14 294 295 296 0
14 -294 0
14 -296 0
14 -295 0
15 321 -16 0
15 -321 -23 0
-15 -321 23 0
-15 321 16 0
16 322 -17 0
16 -322 -20 0
-16 -322 20 0
-16 322 17 0
17 323 -18 0
17 -323 -19 0
-17 -323 19 0
-17 323 18 0
18 -282 -324 0
18 -281 324 0
-18 281 324 0
-18 282 -324 0
19 -284 -324 0
19 -283 324 0
-19 283 324 0
-19 284 -324 0
20 323 -21 0
20 -323 -22 0
-20 -323 22 0
-20 323 21 0
21 -286 -324 0
21 -285 324 0
-21 285 324 0
-21 286 -324 0
22 -288 -324 0
22 -287 324 0
-22 287 324 0
-22 288 -324 0
23 322 -24 0
-23 -322 0
-23 24 0
24 323 -25 0
24 -323 -26 0
-24 -323 26 0
-24 323 25 0
25 -290 -324 0
25 -289 324 0
-25 289 324 0
-25 290 -324 0
26 -292 -324 0
26 -291 324 0
-26 291 324 0
-26 292 -324 0
-27 -321 28 0
-27 321 35 0
27 -321 -28 0
27 321 -35 0
28 -322 -29 0
28 322 -32 0
-28 322 32 0
-28 -322 29 0
29 323 -30 0
29 -323 -31 0
-29 -323 31 0
-29 323 30 0
30 -278 -324 0
30 -277 324 0
-30 277 324 0
-30 278 -324 0
31 -280 -324 0
31 -279 324 0
-31 279 324 0
-31 280 -324 0
32 -323 -33 0
32 323 -34 0
-32 323 34 0
-32 -323 33 0
33 -276 -324 0
33 -275 324 0
-33 275 324 0
-33 276 -324 0
34 -274 -324 0
34 -273 324 0
-34 273 324 0
-34 274 -324 0
-35 322 39 0
-35 -322 36 0
35 -322 -36 0
35 322 -39 0
36 323 -37 0
36 -323 -38 0
-36 -323 38 0
-36 323 37 0
37 -270 -324 0
37 -269 324 0
-37 269 324 0
-37 270 -324 0
38 -272 -324 0
38 -271 324 0
-38 271 324 0
-38 272 -324 0
39 -323 -40 0
39 323 -41 0
-39 323 41 0
-39 -323 40 0
40 -268 -324 0
40 -267 324 0
-40 267 324 0
-40 268 -324 0
41 -266 -324 0
41 -265 324 0
-41 265 324 0
-41 266 -324 0
42 -263 43 -154 186 0
42 -263 -43 154 186 0
-42 -186 0
-42 -43 -154 0
-42 263 0
-42 43 154 0
43 44 117 130 -138 0
-43 138 0
-43 -44 0
-43 -130 0
-43 -117 0
-44 45 53 69 97 0
44 -45 0
44 -97 0
44 -69 0
44 -53 0
45 46 -47 0
-45 -46 0
-45 47 0
-46 320 4 0
46 -320 0
46 -4 0
47 321 -48 0
-47 -321 0
-47 48 0
48 322 -49 0
48 -322 -52 0
-48 -322 52 0
-48 322 49 0
49 323 -50 0
49 -323 -51 0
-49 -323 51 0
-49 323 50 0
50 -289 -324 0
50 -288 324 0
-50 288 324 0
-50 289 -324 0
51 -291 -324 0
51 -290 324 0
-51 290 324 0
-51 291 -324 0
52 -292 323 324 0
-52 292 0
-52 -324 0
-52 -323 0
53 46 -54 0
53 46 -57 0
-53 -46 0
-53 54 57 0
54 321 -55 0
54 -321 -56 0
-54 -321 56 0
-54 321 55 0
55 322 -29 0
55 -322 -17 0
-55 -322 17 0
-55 322 29 0
56 322 -20 0
56 -322 -24 0
-56 -322 24 0
-56 322 20 0
57 321 -58 0
57 -321 -65 0
-57 -321 65 0
-57 321 58 0
58 322 -59 0
58 -322 -62 0
-58 -322 62 0
-58 322 59 0
59 323 -60 0
59 -323 -61 0
-59 -323 61 0
-59 323 60 0
60 -279 -324 0
60 -278 324 0
-60 278 324 0
-60 279 -324 0
61 -281 -324 0
61 -280 324 0
-61 280 324 0
-61 281 -324 0
62 323 -63 0
62 -323 -64 0
-62 -323 64 0
-62 323 63 0
63 -283 -324 0
63 -282 324 0
-63 282 324 0
-63 283 -324 0
64 -285 -324 0
64 -284 324 0
-64 284 324 0
-64 285 -324 0
65 322 -66 0
65 -322 -68 0
-65 -322 68 0
-65 322 66 0
66 -323 -50 0
66 323 -67 0
-66 323 67 0
-66 -323 50 0
67 -287 -324 0
67 -286 324 0
-67 286 324 0
-67 287 -324 0
68 323 -51 0
68 -292 -323 324 0
-68 323 51 0
-68 -323 -324 0
-68 292 -323 0
-69 70 78 87 0
-69 -46 70 78 0
69 -78 0
69 -70 0
69 46 -87 0
70 -321 46 74 0
70 46 -71 74 0
-70 -46 0
-70 -74 0
-70 321 71 0
71 322 -72 0
71 -322 -73 0
-71 -322 73 0
-71 322 72 0
72 323 -31 0
72 -323 -18 0
-72 -323 18 0
-72 323 31 0
73 323 -19 0
73 -323 -21 0
-73 -323 21 0
-73 323 19 0
74 -321 75 0
-74 321 0
-74 -75 0
75 322 -76 0
75 -322 -77 0
-75 -322 77 0
-75 322 76 0
76 323 -22 0
76 -323 -25 0
-76 -323 25 0
-76 323 22 0
77 -291 323 324 0
77 -292 323 -324 0
-77 -323 0
-77 292 -324 0
-77 291 324 0
78 46 -79 0
78 46 -84 0
78 46 -15 0
-78 -46 0
-78 79 15 84 0
79 -48 -80 0
79 321 -80 0
-79 80 0
-79 -321 48 0
-80 321 81 0
80 -321 0
80 -81 0
81 322 -82 0
81 -322 -83 0
-81 -322 83 0
-81 322 82 0
82 323 -61 0
82 -323 -63 0
-82 -323 63 0
-82 323 61 0
83 323 -64 0
83 -323 -67 0
-83 -323 67 0
-83 323 64 0
84 321 -85 0
84 -321 -86 0
-84 -321 86 0
-84 321 85 0
85 322 -62 0
85 -322 -66 0
-85 -322 66 0
-85 322 62 0
86 322 -68 0
-86 -322 0
-86 68 0
-87 -88 94 95 0
-87 91 94 95 0
87 -95 0
87 -94 0
87 88 -91 0
88 -321 89 90 0
-88 321 0
-88 -90 0
-88 -89 0
89 -292 322 323 324 0
-89 -324 0
-89 -323 0
-89 292 0
-89 -322 0
90 322 -77 0
-90 -322 0
-90 77 0
-91 321 92 93 0
91 -321 0
91 -93 0
91 -92 0
92 -322 -49 0
92 322 -83 0
-92 322 83 0
-92 -322 49 0
93 322 -73 0
93 -322 -76 0
-93 -322 76 0
-93 322 73 0
94 321 -75 0
-94 -321 0
-94 75 0
-95 -321 96 0
-95 56 96 0
95 -96 0
95 321 -56 0
96 321 -65 0
-96 -321 0
-96 65 0
97 320 4 -99 0
97 -320 4 -98 0
-97 -4 0
-97 -320 98 0
-97 320 99 0
98 88 -91 0
98 -56 88 0
-98 -88 0
-98 56 91 0
99 -321 -100 0
99 321 -107 0
99 321 -106 0
-99 -321 100 0
-99 321 106 107 0
-100 55 101 104 0
100 -55 0
100 -104 0
100 -101 0
101 -322 -82 0
101 322 -102 0
-101 322 102 0
-101 -322 82 0
102 -323 -60 0
102 323 -103 0
-102 323 103 0
-102 -323 60 0
103 -277 -324 0
103 -276 324 0
-103 276 324 0
-103 277 -324 0
104 -322 -72 0
104 322 -105 0
-104 322 105 0
-104 -322 72 0
105 -323 -30 0
105 323 -33 0
-105 323 33 0
-105 -323 30 0
106 322 -36 0
106 -322 -32 0
-106 -322 32 0
-106 322 36 0
-107 -322 108 0
-107 322 113 116 0
107 322 -116 0
107 -322 -108 0
107 322 -113 0
-108 109 112 0
108 -109 0
108 -112 0
109 323 -110 0
109 -323 -111 0
-109 -323 111 0
-109 323 110 0
110 -273 -324 0
110 -272 324 0
-110 272 324 0
-110 273 -324 0
111 -275 -324 0
111 -274 324 0
-111 274 324 0
-111 275 -324 0
112 323 -38 0
112 -323 -34 0
-112 -323 34 0
-112 323 38 0
113 323 -114 0
113 -323 -115 0
-113 -323 115 0
-113 323 114 0
114 -269 -324 0
114 -268 324 0
-114 268 324 0
-114 269 -324 0
115 -271 -324 0
115 -270 324 0
-115 270 324 0
-115 271 -324 0
116 -323 -37 0
116 323 -40 0
-116 323 40 0
-116 -323 37 0
-117 118 123 0
117 -118 0
117 -123 0
118 -320 4 -122 0
118 320 4 -119 0
-118 -4 0
-118 -320 122 0
-118 320 119 0
119 -321 -85 0
119 321 -120 0
-119 321 120 0
-119 -321 85 0
120 -322 -59 0
120 322 -121 0
-120 322 121 0
-120 -322 59 0
121 -323 -103 0
121 323 -111 0
-121 323 111 0
-121 -323 103 0
122 321 -86 0
-122 -321 0
-122 86 0
-123 124 127 0
123 -124 0
123 -127 0
124 -320 4 -126 0
124 320 4 -125 0
-124 -4 0
-124 -320 126 0
-124 320 125 0
125 -321 -93 0
125 321 -104 0
-125 321 104 0
-125 -321 93 0
126 321 -90 0
-126 -321 0
-126 90 0
127 -320 4 -129 0
127 320 4 -128 0
-127 -4 0
-127 -320 129 0
-127 320 128 0
128 -321 -92 0
128 321 -101 0
-128 321 101 0
-128 -321 92 0
129 321 -89 0
-129 -321 0
-129 89 0
-130 131 134 0
130 -131 0
130 -134 0
131 320 4 -132 0
131 -320 4 -94 0
-131 -4 0
-131 -320 94 0
-131 320 132 0
132 -321 -71 0
132 321 -133 0
-132 321 133 0
-132 -321 71 0
133 -322 -105 0
133 322 -112 0
-133 322 112 0
-133 -322 105 0
134 320 4 -135 0
134 -320 4 -96 0
-134 -4 0
-134 -320 96 0
-134 320 135 0
135 -321 -58 0
135 321 -136 0
-135 321 136 0
-135 -321 58 0
136 -322 -121 0
136 322 -137 0
-136 322 137 0
-136 -322 121 0
137 -323 -110 0
137 323 -115 0
-137 323 115 0
-137 -323 110 0
138 139 141 -142 148 0
-138 -139 0
-138 -148 0
-138 142 0
-138 -141 0
139 46 -140 0
-139 -46 0
-139 140 0
140 321 -23 0
-140 -321 0
-140 23 0
141 46 -122 0
-141 -46 0
-141 122 0
142 143 -144 0
142 -143 -147 0
142 143 -146 0
-142 -143 147 0
-142 143 144 146 0
143 46 -126 0
-143 -46 0
-143 126 0
144 -263 145 0
-144 263 0
-144 -145 0
145 46 -129 0
-145 -46 0
-145 129 0
146 -262 -145 0
-146 262 0
-146 145 0
147 -261 145 0
-147 261 0
-147 -145 0
-148 149 152 0
148 -149 0
148 -152 0
149 320 4 -150 0
149 -320 4 -47 0
-149 -4 0
-149 -320 47 0
-149 320 150 0
150 -321 -81 0
150 321 -151 0
-150 321 151 0
-150 -321 81 0
151 -322 -102 0
151 322 -109 0
-151 322 109 0
-151 -322 102 0
152 320 4 -153 0
152 -320 4 -140 0
-152 -4 0
-152 -320 140 0
-152 320 153 0
153 -321 -16 0
153 321 -28 0
-153 321 28 0
-153 -321 16 0
154 -45 169 170 0
154 -155 169 170 0
-154 -170 0
-154 -169 0
-154 45 155 0
155 139 -156 0
155 -139 -163 166 0
-155 -139 163 0
-155 139 156 0
-155 -139 -166 0
156 -141 -157 0
156 141 -160 0
-156 -141 157 0
-156 141 160 0
157 -143 -159 0
157 143 -158 0
-157 143 158 0
-157 -143 159 0
-158 267 145 0
-158 268 -145 0
158 -268 -145 0
158 -267 145 0
-159 269 145 0
-159 270 -145 0
159 -270 -145 0
159 -269 145 0
-160 143 161 0
-160 -143 162 0
160 -143 -162 0
160 143 -161 0
-161 263 145 0
-161 264 -145 0
161 -264 -145 0
161 -263 145 0
-162 265 145 0
-162 266 -145 0
162 -266 -145 0
162 -265 145 0
-163 141 -143 165 0
-163 141 143 164 0
163 -141 0
163 -143 -165 0
163 143 -164 0
-164 271 145 0
-164 272 -145 0
164 -272 -145 0
164 -271 145 0
-165 273 145 0
-165 274 -145 0
165 -274 -145 0
165 -273 145 0
166 -141 -143 168 0
166 -141 143 167 0
-166 141 0
-166 -143 -168 0
-166 143 -167 0
-167 275 145 0
-167 276 -145 0
167 -276 -145 0
167 -275 145 0
-168 277 145 0
-168 278 -145 0
168 -278 -145 0
168 -277 145 0
-169 53 69 97 134 0
169 -69 0
169 -134 0
169 -53 0
169 -97 0
-170 123 171 172 185 0
170 -185 0
170 -123 0
170 -171 0
170 -172 0
-171 131 149 0
171 -131 0
171 -149 0
172 -45 -139 180 0
172 -45 139 173 0
-172 45 0
-172 -139 -180 0
-172 139 -173 0
173 141 -174 0
173 -141 -177 0
-173 -141 177 0
-173 141 174 0
174 -143 -176 0
174 143 -175 0
-174 143 175 0
-174 -143 176 0
-175 279 145 0
-175 280 -145 0
175 -280 -145 0
175 -279 145 0
-176 281 145 0
-176 282 -145 0
176 -282 -145 0
176 -281 145 0
177 -143 -179 0
177 143 -178 0
-177 143 178 0
-177 -143 179 0
-178 283 145 0
-178 284 -145 0
178 -284 -145 0
178 -283 145 0
-179 285 145 0
-179 286 -145 0
179 -286 -145 0
179 -285 145 0
180 141 -181 0
180 -141 143 -184 0
-180 -141 -143 0
-180 141 181 0
-180 -141 184 0
181 -143 -183 0
181 143 -182 0
-181 143 182 0
-181 -143 183 0
-182 287 145 0
-182 288 -145 0
182 -288 -145 0
182 -287 145 0
-183 289 145 0
-183 290 -145 0
183 -290 -145 0
183 -289 145 0
-184 291 145 0
184 -291 0
184 -145 0
-185 118 152 0
185 -118 0
185 -152 0
-186 3 187 0
186 -3 0
186 -187 0
187 320 4 -188 0
187 -320 4 -84 0
-187 -4 0
-187 320 188 0
-187 -320 84 0
-188 -321 120 0
-188 321 189 0
188 -321 -120 0
188 321 -189 0
-189 322 190 0
-189 -322 137 0
189 -322 -137 0
189 322 -190 0
190 -323 -114 0
190 323 -191 0
-190 323 191 0
-190 -323 114 0
191 -267 -324 0
191 -266 324 0
-191 266 324 0
-191 267 -324 0
-192 262 224 0
-192 -193 -221 224 0
-192 193 221 224 0
192 -224 0
192 -262 193 -221 0
192 -262 -193 221 0
193 -45 194 -209 0
193 45 194 -196 0
-193 -194 0
-193 -45 209 0
-193 45 196 0
-194 131 169 195 0
194 -195 0
194 -169 0
194 -131 0
-195 117 148 187 0
195 -117 0
195 -148 0
195 -187 0
-196 139 197 0
-196 -139 203 0
196 -139 -203 0
196 139 -197 0
-197 141 198 0
-197 -141 -202 0
-197 -141 201 0
197 141 -198 0
197 -141 -201 202 0
-198 143 199 0
-198 -143 200 0
198 -143 -200 0
198 143 -199 0
-199 262 145 0
-199 263 -145 0
199 -263 -145 0
199 -262 145 0
-200 264 145 0
-200 265 -145 0
200 -265 -145 0
200 -264 145 0
-201 267 143 -145 0
-201 266 143 145 0
201 -143 0
201 -266 145 0
201 -267 -145 0
202 269 -143 -145 0
202 268 -143 145 0
-202 143 0
-202 -268 145 0
-202 -269 -145 0
203 141 -204 0
203 -141 -207 208 0
-203 -141 207 0
-203 141 204 0
-203 -141 -208 0
204 -143 -206 0
204 143 -205 0
-204 143 205 0
-204 -143 206 0
-205 270 145 0
-205 271 -145 0
205 -271 -145 0
205 -270 145 0
-206 272 145 0
-206 273 -145 0
206 -273 -145 0
206 -272 145 0
-207 275 143 -145 0
-207 274 143 145 0
207 -143 0
207 -274 145 0
207 -275 -145 0
208 277 -143 -145 0
208 276 -143 145 0
-208 143 0
-208 -276 145 0
-208 -277 -145 0
209 139 -210 0
209 -139 -216 0
-209 -139 216 0
-209 139 210 0
210 141 -211 0
210 -141 -214 215 0
-210 -141 214 0
-210 141 211 0
-210 -141 -215 0
211 -143 -213 0
211 143 -212 0
-211 143 212 0
-211 -143 213 0
-212 278 145 0
-212 279 -145 0
212 -279 -145 0
212 -278 145 0
-213 280 145 0
-213 281 -145 0
213 -281 -145 0
213 -280 145 0
-214 283 143 -145 0
-214 282 143 145 0
214 -143 0
214 -282 145 0
214 -283 -145 0
215 285 -143 -145 0
215 284 -143 145 0
-215 143 0
-215 -284 145 0
-215 -285 -145 0
216 -141 -219 0
216 141 -217 218 0
-216 141 217 0
-216 -141 219 0
-216 141 -218 0
-217 287 143 -145 0
-217 286 143 145 0
217 -143 0
217 -286 145 0
217 -287 -145 0
218 289 -143 -145 0
218 288 -143 145 0
-218 143 0
-218 -288 145 0
-218 -289 -145 0
219 143 -220 0
219 -292 -143 145 0
-219 292 -143 0
-219 143 220 0
-219 -143 -145 0
-220 290 145 0
-220 291 -145 0
220 -291 -145 0
220 -290 145 0
221 44 130 195 -222 0
-221 222 0
-221 -44 0
-221 -195 0
-221 -130 0
222 139 141 143 -223 0
-222 223 0
-222 -143 0
-222 -139 0
-222 -141 0
-223 262 145 0
-223 261 -145 0
223 -262 145 0
223 -261 -145 0
224 -261 194 -225 238 0
-224 -194 0
-224 -238 0
-224 261 0
-224 225 0
-225 45 226 0
-225 -45 232 0
225 -45 -232 0
225 45 -226 0
-226 139 227 0
-226 -139 -231 0
-226 -139 230 0
226 139 -227 0
226 -139 -230 231 0
-227 141 228 0
-227 -141 229 0
227 -141 -229 0
227 141 -228 0
-228 -143 161 0
-228 143 146 147 0
228 143 -146 0
228 -143 -161 0
228 143 -147 0
229 143 -162 0
229 -143 -158 0
-229 -143 158 0
-229 143 162 0
-230 141 -143 164 0
-230 141 143 159 0
230 -141 0
230 -143 -164 0
230 143 -159 0
231 -141 -143 167 0
231 -141 143 165 0
-231 141 0
-231 -143 -167 0
-231 143 -165 0
232 -139 -235 0
232 139 -233 234 0
-232 139 233 0
-232 -139 235 0
-232 139 -234 0
-233 141 -143 175 0
-233 141 143 168 0
233 -141 0
233 -143 -175 0
233 143 -168 0
234 -141 -143 178 0
234 -141 143 176 0
-234 141 0
-234 -143 -178 0
-234 143 -176 0
235 141 -236 0
235 -141 -237 0
-235 -141 237 0
-235 141 236 0
236 -143 -182 0
236 143 -179 0
-236 143 179 0
-236 -143 182 0
237 143 -183 0
237 -143 -145 0
237 -291 -143 0
-237 143 183 0
-237 291 -143 145 0
238 123 134 187 -239 0
-238 239 0
-238 -187 0
-238 -123 0
-238 -134 0
239 44 171 185 -240 0
-239 240 0
-239 -44 0
-239 -185 0
-239 -171 0
240 139 141 143 -147 0
-240 147 0
-240 -143 0
-240 -139 0
-240 -141 0
-241 -4 254 0
-241 242 248 254 0
241 -254 0
241 4 -242 0
241 4 -248 0
-242 -320 54 0
-242 320 243 0
242 -320 -54 0
242 320 -243 0
-243 -321 106 0
-243 321 244 0
243 -321 -106 0
243 321 -244 0
-244 -322 39 0
-244 322 245 0
244 -322 -39 0
244 322 -245 0
-245 323 247 0
-245 -323 246 0
245 -323 -246 0
245 323 -247 0
246 -264 -324 0
246 -263 324 0
-246 263 324 0
-246 264 -324 0
247 -262 -324 0
247 -261 324 0
-247 261 324 0
-247 262 -324 0
-248 -320 57 0
-248 320 249 0
248 -320 -57 0
248 320 -249 0
-249 -321 136 0
-249 321 250 0
249 -321 -136 0
249 321 -250 0
-250 -322 190 0
-250 322 251 0
250 -322 -190 0
250 322 -251 0
-251 323 253 0
-251 -323 252 0
251 -323 -252 0
251 323 -253 0
252 -265 -324 0
252 -264 324 0
-252 264 324 0
-252 265 -324 0
253 -263 -324 0
253 -262 324 0
-253 262 324 0
-253 263 -324 0
254 320 4 -256 0
254 -320 4 -255 0
-254 -4 0
-254 -320 255 0
-254 320 256 0
255 -71 74 0
255 -48 -80 0
255 -48 -71 0
255 74 -80 0
-255 71 80 0
-255 48 -74 0
256 -321 -133 0
256 321 -257 0
256 -321 -151 0
-256 321 257 0
-256 -321 133 151 0
-257 -322 116 258 0
-257 322 258 260 0
257 -258 0
257 322 -260 0
257 -322 -116 0
258 -322 -113 0
258 322 -259 0
-258 322 259 0
-258 -322 113 0
259 -323 -191 0
259 323 -252 0
-259 323 252 0
-259 -323 191 0
260 -323 -41 0
260 323 -246 0
-260 323 246 0
-260 -323 41 0
-325 0
2 0

